c description: Random 3-CNF over 9 variables and 18 clauses
p cnf 9 18
2 -4 -8 0
-3 4 -6 0
4 -5 -7 0
-1 8 9 0
-2 -3 -6 0
-3 6 -9 0
1 2 -5 0
1 8 9 0
-2 5 -6 0
6 -7 8 0
-1 4 -8 0
2 -6 -7 0
-1 2 3 0
3 5 6 0
-1 2 5 0
-2 -5 9 0
5 8 -9 0
-1 4 -5 0